(set-logic HORN)

(declare-datatypes ((listOfInt 0) )
(((cons-listOfInt (head-listOfInt Int) (tail-listOfInt listOfInt)) (nil-listOfInt))))
(declare-datatypes ((queueOfInt 0) )
(((queue-queueOfInt (front-queueOfInt listOfInt) (back-queueOfInt listOfInt)) )))

(declare-fun append (listOfInt listOfInt listOfInt) Bool)
(declare-fun len (listOfInt Int) Bool)
(declare-fun ff () Bool)

(assert
  (forall ( (A Int) )
    (=>
      (= A 0)
      (len nil-listOfInt A)
    )
  )
)
(assert
  (forall ( (A Int) (B listOfInt) (C Int) (D Int) )
    (=>
      (and
        (= C (+ 1 D))
        (len B D)
      )
      (len (cons-listOfInt A B) C)
    )
  )
)
(assert
  (forall ( (A listOfInt) )
    (append nil-listOfInt A A)
  )
)
(assert
  (forall ( (A Int) (B listOfInt) (C listOfInt) (D listOfInt) )
    (=>
      (append B C D)
      (append (cons-listOfInt A B) C (cons-listOfInt A D))
    )
  )
)
(assert
  (forall ( (A Int) (B Int) (C listOfInt) (D listOfInt) (E listOfInt) (F Int) )
    (=>
      (and
        (not (= F (+ A B)))
        (len D B)
        (len C A)
        (append C D E)
        (len E F)
      )
      ff
    )
  )
)

(assert (not ff))
(check-sat)
